x	y
40	50
52	75
45	70
62	69
60	66
42	65
16	42
58	70
34	60
28	70
35	66
35	69
25	85
22	75
22	85
20	80
20	85
18	75
15	75
15	80
30	50
30	56
28	52
14	66
25	50
22	66
8	62
23	52
4	55
20	50
20	55
10	35
10	40
8	40
8	45
5	35
5	45
2	40
0	40
0	45
36	18
35	32
33	32
33	35
32	20
30	30
34	25
30	35
36	40
48	20
26	32
